4 3
5 3
5 4
6 2
7 2
8 2
8 7
9 3
9 4
9 5
10 2
10 6
10 8
11 3
12 1
12 5
13 2
13 6
13 10
14 7
14 8
15 4
15 9
16 3
16 5
16 12
17 11
18 3
18 4
18 9
18 15
19 7
19 8
19 14
20 2
20 7
20 8
20 10
21 3
21 4
21 5
21 9
21 15
21 18
22 2
22 10
22 20
23 2
23 6
23 13
24 2
24 10
24 13
24 20
24 22
25 2
25 7
25 10
25 20
25 22
25 24
26 3
26 4
26 9
26 15
26 18
26 21
27 1
27 7
27 8
27 14
27 19
28 2
28 7
28 8
28 10
28 14
28 19
28 20
28 24
28 25
28 27
29 4
29 5
29 9
29 15
29 18
29 21
29 26
30 2
30 10
30 13
30 20
30 22
30 24
30 25
30 28
31 1
31 12
31 27
32 1
32 3
32 5
32 12
32 16
32 31
33 1
33 5
33 12
33 16
33 31
33 32
35 3
35 5
35 12
35 16
35 32
35 33
35 34
36 2
36 10
36 20
36 22
36 24
36 25
36 28
36 30
37 1
37 5
37 12
37 16
37 31
37 32
37 33
38 2
38 10
38 20
38 22
38 24
38 25
38 28
38 30
38 36
39 7
39 8
39 14
39 19
39 27
39 28
39 33
40 4
40 9
40 15
40 18
40 21
40 26
40 29
41 2
41 6
41 10
41 13
41 20
41 22
41 24
41 25
41 28
41 30
41 36
41 38
42 3
42 9
42 11
42 17
42 21
43 7
43 8
43 14
43 19
43 20
43 27
43 28
43 39
44 1
44 12
44 31
44 37
45 2
45 7
45 8
45 10
45 13
45 14
45 20
45 22
45 24
45 25
45 27
45 28
45 30
45 36
45 38
45 41
45 43
46 2
46 7
46 10
46 20
46 22
46 24
46 25
46 28
46 30
46 36
46 38
46 41
46 45
47 1
47 12
47 16
47 31
47 32
47 33
47 37
47 44
48 3
48 4
48 5
48 9
48 12
48 15
48 16
48 21
48 29
48 32
48 33
48 35
48 37
49 3
49 4
49 9
49 11
49 15
49 17
49 18
49 21
49 26
49 29
49 40
49 42
50 3
50 11
50 17
50 42
50 49
51 19
51 34
51 39
52 2
52 7
52 8
52 10
52 14
52 19
52 20
52 22
52 24
52 25
52 27
52 28
52 30
52 36
52 38
52 39
52 41
52 43
52 45
52 46
53 2
53 10
53 20
53 22
53 24
53 25
53 28
53 30
53 36
53 38
53 41
53 45
53 46
53 52
54 4
54 9
54 15
54 18
54 21
54 26
54 29
54 40
54 48
54 49
55 1
55 12
55 23
55 27
55 31
55 44
55 47
56 6
56 13
56 23
57 1
57 23
57 27
57 31
57 44
57 47
57 55
58 2
58 7
58 8
58 10
58 20
58 22
58 24
58 25
58 28
58 30
58 36
58 38
58 41
58 45
58 46
58 52
58 53
59 3
59 4
59 9
59 11
59 17
59 18
59 21
59 26
59 40
59 42
59 49
59 50
60 2
60 6
60 13
60 23
60 56
61 2
61 10
61 20
61 22
61 24
61 25
61 28
61 30
61 36
61 38
61 41
61 45
61 46
61 52
61 53
61 58
62 2
62 7
62 8
62 10
62 14
62 19
62 20
62 24
62 25
62 27
62 28
62 30
62 38
62 39
62 43
62 45
62 46
62 52
62 53
62 58
63 3
63 5
63 11
63 17
63 35
63 42
63 49
63 50
63 59
64 1
64 2
64 6
64 8
64 13
64 23
64 27
64 28
64 31
64 43
64 44
64 52
64 55
64 56
64 57
64 60
64 62
65 8
65 14
65 16
65 19
65 33
65 34
65 35
65 39
65 43
65 51
66 2
66 7
66 8
66 10
66 14
66 19
66 20
66 22
66 24
66 25
66 27
66 28
66 30
66 36
66 38
66 39
66 41
66 43
66 45
66 46
66 52
66 53
66 58
66 61
66 62
67 1
67 6
67 13
67 23
67 27
67 31
67 44
67 55
67 56
67 57
67 60
67 64
68 2
68 7
68 8
68 10
68 14
68 19
68 20
68 24
68 25
68 27
68 28
68 30
68 38
68 39
68 41
68 43
68 45
68 46
68 52
68 53
68 58
68 61
68 62
68 64
68 66
68 67
69 2
69 7
69 8
69 10
69 14
69 20
69 22
69 24
69 25
69 27
69 28
69 30
69 36
69 38
69 41
69 43
69 45
69 46
69 52
69 53
69 58
69 61
69 62
69 66
69 68
70 1
70 2
70 6
70 13
70 23
70 27
70 44
70 55
70 56
70 57
70 60
70 64
70 67
70 68
71 2
71 6
71 10
71 13
71 23
71 24
71 41
71 45
71 56
71 60
71 64
71 67
71 68
71 70
72 1
72 31
72 37
72 44
72 47
72 55
72 57
72 67
73 7
73 8
73 14
73 19
73 27
73 28
73 39
73 43
73 45
73 51
73 52
73 62
73 65
73 66
73 68
73 69
74 1
74 8
74 12
74 16
74 19
74 27
74 28
74 31
74 32
74 33
74 35
74 39
74 43
74 51
74 62
74 65
74 68
74 73
75 2
75 6
75 8
75 10
75 13
75 20
75 23
75 24
75 25
75 27
75 28
75 30
75 36
75 38
75 41
75 45
75 46
75 52
75 53
75 58
75 60
75 61
75 62
75 64
75 66
75 68
75 69
75 70
75 71
76 1
76 2
76 6
76 7
76 8
76 10
76 13
76 14
76 19
76 20
76 23
76 27
76 28
76 30
76 39
76 43
76 45
76 52
76 55
76 57
76 62
76 64
76 66
76 67
76 68
76 69
76 70
76 71
76 73
76 74
76 75
77 4
77 5
77 9
77 15
77 18
77 21
77 26
77 29
77 40
77 48
77 49
77 54
78 7
78 8
78 14
78 19
78 27
78 28
78 33
78 39
78 43
78 51
78 52
78 62
78 65
78 68
78 73
78 74
78 76
79 1
79 8
79 12
79 16
79 19
79 27
79 28
79 31
79 32
79 33
79 39
79 43
79 44
79 52
79 55
79 57
79 62
79 64
79 65
79 67
79 68
79 73
79 74
79 76
79 78
80 1
80 12
80 16
80 27
80 31
80 32
80 33
80 37
80 39
80 43
80 44
80 47
80 55
80 57
80 64
80 67
80 72
80 74
80 76
80 78
80 79
81 3
81 5
81 9
81 11
81 17
81 21
81 42
81 49
81 50
81 59
81 63
82 2
82 10
82 20
82 22
82 24
82 25
82 28
82 30
82 36
82 38
82 41
82 45
82 46
82 52
82 53
82 58
82 61
82 62
82 66
82 68
82 69
82 75
83 2
83 7
83 8
83 10
83 14
83 20
83 22
83 24
83 25
83 27
83 28
83 30
83 36
83 38
83 41
83 43
83 45
83 46
83 52
83 53
83 58
83 61
83 62
83 66
83 68
83 69
83 73
83 75
83 76
83 82
84 2
84 6
84 10
84 13
84 20
84 23
84 24
84 25
84 30
84 38
84 41
84 45
84 52
84 53
84 56
84 58
84 60
84 61
84 64
84 66
84 68
84 69
84 70
84 71
84 75
84 82
85 3
85 9
85 11
85 17
85 42
85 49
85 50
85 59
85 63
85 81
86 2
86 10
86 20
86 22
86 24
86 25
86 28
86 30
86 36
86 38
86 41
86 45
86 46
86 52
86 53
86 58
86 61
86 66
86 69
86 75
86 82
86 83
86 84
87 3
87 5
87 9
87 12
87 16
87 32
87 33
87 35
87 37
87 48
88 1
88 2
88 7
88 8
88 10
88 14
88 19
88 20
88 24
88 27
88 28
88 30
88 39
88 43
88 45
88 52
88 53
88 55
88 57
88 58
88 62
88 64
88 66
88 67
88 68
88 69
88 70
88 71
88 73
88 74
88 75
88 76
88 78
88 79
88 80
88 83
89 2
89 6
89 13
89 23
89 56
89 57
89 60
89 64
89 67
89 70
89 71
89 75
89 76
89 84
90 1
90 8
90 12
90 16
90 19
90 27
90 31
90 32
90 33
90 39
90 43
90 44
90 55
90 57
90 62
90 64
90 65
90 67
90 68
90 73
90 74
90 76
90 78
90 79
90 80
90 88
91 2
91 7
91 8
91 10
91 14
91 19
91 20
91 24
91 25
91 27
91 28
91 30
91 38
91 39
91 43
91 45
91 46
91 52
91 53
91 58
91 62
91 64
91 66
91 68
91 69
91 73
91 74
91 75
91 76
91 78
91 79
91 83
91 88
91 90
92 2
92 7
92 8
92 10
92 14
92 19
92 20
92 24
92 25
92 27
92 28
92 30
92 38
92 39
92 41
92 43
92 45
92 46
92 52
92 53
92 58
92 61
92 62
92 64
92 66
92 68
92 69
92 70
92 71
92 73
92 75
92 76
92 78
92 79
92 82
92 83
92 84
92 86
92 88
92 90
92 91
93 2
93 6
93 10
93 13
93 20
93 22
93 24
93 25
93 28
93 30
93 36
93 38
93 41
93 45
93 46
93 52
93 53
93 58
93 60
93 61
93 62
93 66
93 68
93 69
93 71
93 75
93 76
93 82
93 83
93 84
93 86
93 88
93 89
93 91
93 92
94 2
94 7
94 8
94 10
94 14
94 20
94 22
94 24
94 25
94 28
94 30
94 36
94 38
94 41
94 43
94 45
94 46
94 52
94 53
94 58
94 61
94 62
94 66
94 68
94 69
94 75
94 76
94 82
94 83
94 84
94 86
94 88
94 91
94 92
94 93
95 6
95 13
95 23
95 56
95 60
95 70
95 71
95 84
95 89
96 2
96 6
96 10
96 13
96 20
96 23
96 24
96 28
96 30
96 38
96 41
96 45
96 52
96 53
96 56
96 60
96 64
96 66
96 67
96 68
96 69
96 70
96 71
96 75
96 76
96 84
96 88
96 89
96 92
96 93
96 95
97 8
97 14
97 16
97 19
97 27
97 33
97 34
97 35
97 39
97 43
97 51
97 62
97 65
97 73
97 74
97 78
97 79
97 80
97 90
97 91
98 1
98 12
98 27
98 31
98 32
98 37
98 44
98 47
98 55
98 57
98 64
98 67
98 70
98 72
98 74
98 79
98 80
98 90
99 2
99 7
99 8
99 10
99 14
99 19
99 20
99 24
99 25
99 27
99 28
99 30
99 38
99 39
99 41
99 43
99 45
99 46
99 52
99 53
99 58
99 62
99 66
99 68
99 69
99 73
99 75
99 76
99 78
99 79
99 82
99 83
99 88
99 91
99 92
99 93
99 94
100 7
100 8
100 14
100 19
100 27
100 28
100 39
100 43
100 45
100 51
100 52
100 62
100 64
100 65
100 66
100 68
100 69
100 73
100 74
100 76
100 78
100 79
100 80
100 83
100 88
100 90
100 91
100 92
100 97
100 99
101 7
101 8
101 14
101 19
101 27
101 28
101 39
101 43
101 51
101 52
101 62
101 65
101 66
101 68
101 73
101 74
101 76
101 78
101 79
101 88
101 90
101 91
101 92
101 97
101 99
101 100
102 1
102 8
102 12
102 16
102 27
102 31
102 32
102 33
102 37
102 39
102 43
102 44
102 47
102 55
102 57
102 65
102 68
102 72
102 74
102 76
102 78
102 79
102 80
102 88
102 90
102 97
102 98
102 100
103 1
103 12
103 27
103 31
103 37
103 44
103 47
103 55
103 57
103 64
103 67
103 70
103 72
103 79
103 80
103 90
103 98
103 102
104 3
104 4
104 5
104 9
104 11
104 15
104 18
104 21
104 26
104 29
104 40
104 42
104 49
104 50
104 54
104 59
104 63
104 77
104 81
104 85
105 1
105 8
105 16
105 19
105 27
105 33
105 35
105 39
105 43
105 51
105 62
105 65
105 73
105 74
105 76
105 78
105 79
105 80
105 88
105 90
105 91
105 97
105 100
105 101
105 102
106 6
106 13
106 23
106 56
106 60
106 70
106 71
106 84
106 89
106 95
106 96
107 2
107 6
107 7
107 8
107 10
107 13
107 20
107 23
107 24
107 25
107 27
107 28
107 30
107 38
107 41
107 43
107 45
107 46
107 52
107 53
107 58
107 60
107 61
107 62
107 64
107 66
107 68
107 69
107 70
107 71
107 75
107 76
107 83
107 84
107 88
107 89
107 91
107 92
107 93
107 94
107 96
107 99
107 100
108 1
108 8
108 12
108 19
108 27
108 28
108 31
108 33
108 39
108 43
108 44
108 52
108 55
108 57
108 62
108 64
108 67
108 68
108 70
108 72
108 73
108 74
108 76
108 78
108 79
108 80
108 88
108 90
108 91
108 92
108 97
108 98
108 100
108 102
108 103
108 105
109 1
109 12
109 27
109 31
109 32
109 33
109 37
109 39
109 43
109 44
109 47
109 55
109 57
109 64
109 67
109 68
109 70
109 72
109 74
109 76
109 78
109 79
109 80
109 88
109 90
109 97
109 98
109 102
109 103
109 105
109 108
110 1
110 7
110 8
110 12
110 16
110 19
110 27
110 28
110 31
110 33
110 39
110 43
110 44
110 52
110 55
110 57
110 62
110 64
110 66
110 67
110 68
110 70
110 73
110 74
110 76
110 78
110 79
110 80
110 88
110 90
110 91
110 92
110 97
110 98
110 99
110 100
110 101
110 102
110 103
110 105
110 107
110 108
110 109
111 2
111 6
111 10
111 13
111 20
111 23
111 24
111 25
111 28
111 30
111 36
111 38
111 41
111 45
111 46
111 52
111 53
111 56
111 58
111 60
111 61
111 66
111 68
111 69
111 70
111 71
111 75
111 76
111 82
111 83
111 84
111 86
111 89
111 92
111 93
111 94
111 96
111 107
112 12
112 15
112 29
112 32
112 37
112 47
112 48
112 54
112 77
113 2
113 6
113 7
113 8
113 10
113 13
113 20
113 22
113 24
113 25
113 27
113 28
113 30
113 36
113 38
113 41
113 43
113 45
113 46
113 52
113 53
113 58
113 61
113 62
113 66
113 68
113 69
113 71
113 75
113 76
113 82
113 83
113 84
113 86
113 88
113 91
113 92
113 93
113 94
113 96
113 99
113 107
113 111
114 1
114 7
114 8
114 14
114 16
114 19
114 27
114 28
114 33
114 39
114 43
114 51
114 52
114 62
114 64
114 65
114 66
114 68
114 73
114 74
114 76
114 78
114 79
114 80
114 88
114 90
114 91
114 92
114 97
114 99
114 100
114 101
114 102
114 105
114 108
114 109
114 110
115 2
115 7
115 8
115 10
115 14
115 19
115 20
115 22
115 24
115 25
115 27
115 28
115 30
115 36
115 38
115 41
115 43
115 45
115 46
115 52
115 53
115 58
115 61
115 62
115 66
115 68
115 69
115 73
115 75
115 76
115 82
115 83
115 84
115 86
115 88
115 91
115 92
115 93
115 94
115 96
115 99
115 100
115 101
115 107
115 111
115 113
115 114
116 2
116 10
116 20
116 22
116 24
116 25
116 28
116 30
116 36
116 38
116 41
116 45
116 46
116 52
116 53
116 58
116 61
116 62
116 66
116 68
116 69
116 75
116 82
116 83
116 84
116 86
116 88
116 91
116 92
116 93
116 94
116 96
116 99
116 107
116 111
116 113
116 115
117 1
117 8
117 12
117 16
117 19
117 27
117 31
117 32
117 33
117 35
117 39
117 43
117 51
117 62
117 65
117 73
117 74
117 76
117 78
117 79
117 80
117 88
117 90
117 91
117 97
117 100
117 101
117 102
117 105
117 108
117 109
117 110
117 114
118 2
118 10
118 20
118 22
118 24
118 25
118 28
118 30
118 36
118 38
118 41
118 45
118 46
118 52
118 53
118 58
118 61
118 66
118 69
118 75
118 82
118 83
118 86
118 92
118 93
118 94
118 99
118 111
118 113
118 115
118 116
119 1
119 31
119 44
119 47
119 55
119 57
119 64
119 67
119 72
119 80
119 98
119 103
119 109
120 1
120 12
120 31
120 32
120 33
120 37
120 44
120 47
120 55
120 57
120 67
120 72
120 80
120 90
120 98
120 102
120 103
120 108
120 109
120 112
120 119
121 16
121 33
121 34
121 35
121 39
121 51
121 65
121 74
121 78
121 97
121 105
121 117
122 1
122 2
122 6
122 8
122 13
122 23
122 27
122 31
122 43
122 44
122 55
122 56
122 57
122 60
122 62
122 64
122 67
122 68
122 70
122 71
122 75
122 76
122 84
122 88
122 89
122 91
122 92
122 95
122 96
122 98
122 103
122 107
122 108
122 109
122 110
122 111
122 119
123 2
123 7
123 8
123 10
123 13
123 14
123 19
123 20
123 22
123 24
123 25
123 27
123 28
123 30
123 36
123 38
123 41
123 43
123 45
123 46
123 52
123 53
123 58
123 61
123 62
123 64
123 66
123 68
123 69
123 71
123 73
123 75
123 76
123 82
123 83
123 84
123 86
123 88
123 91
123 92
123 93
123 94
123 96
123 99
123 100
123 107
123 110
123 111
123 113
123 114
123 115
123 116
123 118
124 3
124 4
124 9
124 15
124 18
124 21
124 26
124 29
124 40
124 49
124 54
124 59
124 77
124 104
125 7
125 8
125 14
125 16
125 19
125 27
125 28
125 33
125 34
125 39
125 43
125 51
125 62
125 65
125 68
125 73
125 74
125 76
125 78
125 79
125 80
125 88
125 90
125 91
125 97
125 100
125 101
125 102
125 105
125 108
125 110
125 114
125 117
125 121
126 2
126 7
126 8
126 10
126 14
126 19
126 20
126 22
126 24
126 25
126 27
126 28
126 30
126 36
126 38
126 41
126 43
126 45
126 46
126 52
126 53
126 58
126 61
126 62
126 66
126 68
126 69
126 71
126 73
126 75
126 76
126 82
126 83
126 84
126 86
126 88
126 91
126 92
126 93
126 94
126 96
126 99
126 100
126 107
126 110
126 111
126 113
126 114
126 115
126 116
126 118
126 123
127 2
127 6
127 10
127 13
127 20
127 23
127 24
127 25
127 27
127 28
127 30
127 36
127 38
127 41
127 45
127 46
127 52
127 53
127 56
127 58
127 60
127 61
127 62
127 64
127 66
127 68
127 69
127 70
127 71
127 75
127 76
127 82
127 83
127 84
127 86
127 88
127 89
127 91
127 92
127 93
127 94
127 95
127 96
127 99
127 107
127 111
127 113
127 115
127 116
127 122
127 123
127 126
128 1
128 2
128 7
128 8
128 14
128 19
128 20
128 27
128 28
128 39
128 43
128 45
128 52
128 55
128 57
128 62
128 64
128 66
128 67
128 68
128 69
128 70
128 73
128 74
128 75
128 76
128 78
128 79
128 80
128 83
128 88
128 90
128 91
128 92
128 94
128 97
128 98
128 99
128 100
128 101
128 102
128 105
128 107
128 108
128 109
128 110
128 113
128 114
128 115
128 117
128 122
128 123
128 125
128 126
31